\* NoName *\
Minimize
OBJ: cost_0000 + omg_0000
Subject To
C_0000_cost_0001: cost_0000 - 0.712584574473 pi_0001_0000
 - 0.187925048877 pi_0001_0001 >= 0
C_0000_cost_0004: cost_0000 - 0.502764220927 pi_0004_0000
 - 0.304458558353 pi_0004_0001 - 0.301740084579 pi_0004_0002 >= 0
C_0000_cost_0006: cost_0000 - 0.839284941818 pi_0006_0000
 - 0.597788538972 pi_0006_0001 - 0.101190417245 pi_0006_0002 >= 0
C_0000_cost_0007: cost_0000 - 0.374066969978 pi_0007_0000
 - 0.521376495136 pi_0007_0001 - 0.58864007103 pi_0007_0002
 - 0.637948932542 pi_0007_0003 >= 0
C_0000_cost_0008: cost_0000 - 0.193222905641 pi_0008_0000
 - 0.494292412172 pi_0008_0001 - 0.803664501694 pi_0008_0002 >= 0
C_0000_cost_0009: cost_0000 - 0.123394022984 pi_0009_0000
 - 0.0993539145478 pi_0009_0001 - 0.0665095850124 pi_0009_0002
 - 0.0252903576276 pi_0009_0003 - 0.0231506022943 pi_0009_0004
 - 0.0759831045405 pi_0009_0005 - 0.131115644782 pi_0009_0006
 - 0.186268751095 pi_0009_0007 - 0.240466437378 pi_0009_0008
 - 0.292767160775 pi_0009_0009 - 0.343018356284 pi_0009_0010
 - 0.390480829384 pi_0009_0011 - 0.434767604444 pi_0009_0012
 - 0.474978618571 pi_0009_0013 - 0.510804695806 pi_0009_0014
 - 0.541874324444 pi_0009_0015 - 0.568566349786 pi_0009_0016
 - 0.591383570579 pi_0009_0017 - 0.611111390103 pi_0009_0018
 - 0.628753559029 pi_0009_0019 - 0.645016234244 pi_0009_0020
 - 0.660547300084 pi_0009_0021 - 0.67552189439 pi_0009_0022
 - 0.689970063342 pi_0009_0023 - 0.703550953814 pi_0009_0024
 - 0.715992415851 pi_0009_0025 - 0.726975195479 pi_0009_0026
 - 0.736504753201 pi_0009_0027 - 0.744713929031 pi_0009_0028
 - 0.751993396599 pi_0009_0029 - 0.758686627901 pi_0009_0030
 - 0.765110271871 pi_0009_0031 - 0.771337114559 pi_0009_0032
 - 0.777346778752 pi_0009_0033 - 0.783008087476 pi_0009_0034
 - 0.788252227546 pi_0009_0035 - 0.793187004791 pi_0009_0036
 - 0.797997401605 pi_0009_0037 - 0.802970965628 pi_0009_0038
 - 0.808294131105 pi_0009_0039 - 0.814091354199 pi_0009_0040
 - 0.82031561876 pi_0009_0041 - 0.826926184501 pi_0009_0042
 - 0.833828722723 pi_0009_0043 - 0.841035304826 pi_0009_0044
 - 0.848479524369 pi_0009_0045 - 0.856082472344 pi_0009_0046
 - 0.863542248813 pi_0009_0047 - 0.870508738438 pi_0009_0048
 - 0.876552457842 pi_0009_0049 >= 0
C_0000_cost_0011: cost_0000 - 0.282312770186 pi_0011_0000 >= 0
C_0000_cost_0012: cost_0000 - 0.144671386139 pi_0012_0000
 - 0.288535600079 pi_0012_0001 - 0.414443243313 pi_0012_0002
 - 0.502727244282 pi_0012_0003 - 0.565587261875 pi_0012_0004
 - 0.622353497032 pi_0012_0005 - 0.67823467231 pi_0012_0006
 - 0.728012342086 pi_0012_0007 - 0.769240021006 pi_0012_0008
 - 0.805833438746 pi_0012_0009 - 0.838289292284 pi_0012_0010
 - 0.862105036897 pi_0012_0011 - 0.877461712414 pi_0012_0012
 - 0.887162402021 pi_0012_0013 >= 0
C_0000_cost_0013: cost_0000 - 0.150510138444 pi_0013_0000 >= 0
C_0000_cost_0014: cost_0000 - 0.816385945586 pi_0014_0000
 - 0.622358340964 pi_0014_0001 - 0.305167515616 pi_0014_0002 >= 0
C_0000_cost_0015: cost_0000 - 0.386053770527 pi_0015_0000
 - 0.5042537727 pi_0015_0001 - 0.560376526587 pi_0015_0002 >= 0
C_0000_cost_0016: cost_0000 - 0.0554379697797 pi_0016_0000
 - 0.0311343656339 pi_0016_0001 - 0.0383789332353 pi_0016_0002
 - 0.0852472600536 pi_0016_0003 - 0.141009275669 pi_0016_0004
 - 0.204382066908 pi_0016_0005 - 0.273472883698 pi_0016_0006
 - 0.346541178182 pi_0016_0007 - 0.420586373765 pi_0016_0008
 - 0.490093873452 pi_0016_0009 - 0.549196238552 pi_0016_0010
 - 0.595539287722 pi_0016_0011 - 0.631262872783 pi_0016_0012
 - 0.660422355935 pi_0016_0013 - 0.686130435436 pi_0016_0014
 - 0.709694746119 pi_0016_0015 - 0.731393040404 pi_0016_0016
 - 0.751491421196 pi_0016_0017 - 0.770513373146 pi_0016_0018
 - 0.788802668324 pi_0016_0019 - 0.806182827911 pi_0016_0020
 - 0.822191639249 pi_0016_0021 - 0.836501695115 pi_0016_0022
 - 0.849026578006 pi_0016_0023 - 0.859815579266 pi_0016_0024
 - 0.869031180763 pi_0016_0025 - 0.876956878158 pi_0016_0026
 - 0.883895268631 pi_0016_0027 - 0.890072619902 pi_0016_0028
 - 0.895668126526 pi_0016_0029 - 0.900841799125 pi_0016_0030
 - 0.905672481813 pi_0016_0031 - 0.910136655129 pi_0016_0032
 - 0.914191341936 pi_0016_0033 - 0.917820547696 pi_0016_0034
 - 0.920973231515 pi_0016_0035 - 0.923534020749 pi_0016_0036
 - 0.925424670266 pi_0016_0037 - 0.926701102447 pi_0016_0038
 - 0.927510677495 pi_0016_0039 >= 0
C_0000_cost_0017: cost_0000 - 0.965265491146 pi_0017_0000
 - 0.918311148559 pi_0017_0001 - 0.552048443526 pi_0017_0002
 - 0.214811033931 pi_0017_0003 - 0.131564218088 pi_0017_0004
 - 0.0425619029697 pi_0017_0005 >= 0
C_0000_cost_0018: cost_0000 - 0.836733933685 pi_0018_0000
 - 0.602890585696 pi_0018_0001 - 0.10714278861 pi_0018_0002 >= 0
C_0000_cost_0019: cost_0000 - 0.0915349474111 pi_0019_0000
 - 0.184292231773 pi_0019_0001 - 0.273056040385 pi_0019_0002
 - 0.352079802722 pi_0019_0003 - 0.420671373151 pi_0019_0004
 - 0.483209140337 pi_0019_0005 - 0.542255411738 pi_0019_0006
 - 0.594002431259 pi_0019_0007 - 0.632636322266 pi_0019_0008
 - 0.657955067742 pi_0019_0009 - 0.674998379112 pi_0019_0010
 - 0.688162496339 pi_0019_0011 - 0.699000334643 pi_0019_0012
 - 0.707913904939 pi_0019_0013 - 0.715807525503 pi_0019_0014
 - 0.724235047241 pi_0019_0015 - 0.734325355022 pi_0019_0016
 - 0.745635013397 pi_0019_0017 - 0.756412420993 pi_0019_0018
 - 0.765099849117 pi_0019_0019 - 0.771316434022 pi_0019_0020
 - 0.775599900654 pi_0019_0021 - 0.778591900089 pi_0019_0022
 - 0.780671685561 pi_0019_0023 - 0.782137898564 pi_0019_0024
 - 0.783325149646 pi_0019_0025 - 0.784526689577 pi_0019_0026
 - 0.785942014084 pi_0019_0027 - 0.787693158722 pi_0019_0028
 - 0.789742708818 pi_0019_0029 - 0.791780140224 pi_0019_0030
 - 0.793438750337 pi_0019_0031 - 0.794657259326 pi_0019_0032
 - 0.795589119433 pi_0019_0033 - 0.796296361831 pi_0019_0034
 - 0.796783989417 pi_0019_0035 - 0.797132457206 pi_0019_0036
 - 0.797411416533 pi_0019_0037 >= 0
C_0000_cost_0020: cost_0000 - 0.129219299866 pi_0020_0000
 - 0.203631990084 pi_0020_0001 - 0.248214200394 pi_0020_0002
 - 0.306850128331 pi_0020_0003 - 0.401047643412 pi_0020_0004
 - 0.481149132329 pi_0020_0005 - 0.530485645061 pi_0020_0006
 - 0.558426356844 pi_0020_0007 - 0.574612459953 pi_0020_0008
 - 0.58497585278 pi_0020_0009 - 0.592810084433 pi_0020_0010
 - 0.599491435038 pi_0020_0011 - 0.60528055083 pi_0020_0012
 - 0.609923346234 pi_0020_0013 - 0.613249484314 pi_0020_0014
 - 0.61506859809 pi_0020_0015 >= 0
C_0000_cost_0021: cost_0000 - 0.141881446579 pi_0021_0000
 - 0.203913454182 pi_0021_0001 - 0.245270578146 pi_0021_0002
 - 0.280043119614 pi_0021_0003 - 0.314225691573 pi_0021_0004
 - 0.354053855099 pi_0021_0005 - 0.37947280819 pi_0021_0006
 - 0.393721069607 pi_0021_0007 - 0.404371560565 pi_0021_0008
 - 0.417165413956 pi_0021_0009 - 0.427778808365 pi_0021_0010
 - 0.435343735941 pi_0021_0011 - 0.442546438078 pi_0021_0012
 - 0.448978396407 pi_0021_0013 >= 0
C_0000_cost_0022: cost_0000 - 0.122319357687 pi_0022_0000
 - 0.192437535586 pi_0022_0001 - 0.233430128348 pi_0022_0002
 - 0.292024267966 pi_0022_0003 - 0.392405944112 pi_0022_0004
 - 0.478691694974 pi_0022_0005 - 0.528598733983 pi_0022_0006
 - 0.555601889063 pi_0022_0007 - 0.572517742218 pi_0022_0008
 - 0.585874011252 pi_0022_0009 - 0.595447052225 pi_0022_0010
 - 0.600598036808 pi_0022_0011 - 0.603777188624 pi_0022_0012
 - 0.606392662251 pi_0022_0013 - 0.608586889008 pi_0022_0014 >= 0
C_0000_cost_0023: cost_0000 - 0.0433673361657 pi_0023_0000 >= 0
C_0000_cost_0024: cost_0000 - 0.649659485941 pi_0024_0000 >= 0
C_0000_cost_0032: cost_0000 - 0.09013602294 pi_0032_0000 >= 0
C_0000_cost_0033: cost_0000 - 0.0340135979227 pi_0033_0000 >= 0
C_0000_cost_0034: cost_0000 - 0.17516998682 pi_0034_0000 >= 0
C_0000_cost_0035: cost_0000 - 0.0705782092462 pi_0035_0000 >= 0
C_0000_cost_0036: cost_0000 - 0.0918367023472 pi_0036_0000 >= 0
C_0000_cost_0037: cost_0000 - 0.0544217536507 pi_0037_0000 >= 0
C_0000_cost_0038: cost_0000 - 0.200680174083 pi_0038_0000 >= 0
C_0000_cost_0039: cost_0000 - 0.226190360778 pi_0039_0000 >= 0
C_0000_linear_0000: - act_0000 + xi_0000_0000 = 21
C_0000_linear_0001: - act_0001 + xi_0000_0001 = 1
C_0000_linear_0002: - act_0002 + xi_0000_0002 = 5
C_0000_linear_0003: - act_0003 + xi_0000_0003 = 1
C_0000_linear_0004: - act_0004 + xi_0000_0004 = 3
C_0000_linear_0005: - act_0005 + xi_0000_0005 = 0
C_0000_linear_0006: - act_0006 + xi_0000_0006 = 3
C_0000_linear_0007: - act_0007 + xi_0000_0007 = 1
C_0000_linear_0008: - act_0008 + xi_0000_0008 = 1
C_0000_linear_0009: - act_0009 + xi_0000_0009 = 2380
C_0000_linear_0010: - act_0010 + xi_0000_0010 = 1
C_0000_linear_0011: - act_0011 + xi_0000_0011 = 1
C_0000_linear_0012: - act_0012 + xi_0000_0012 = 11
C_0000_linear_0013: - act_0013 + xi_0000_0013 = 0
C_0000_linear_0014: - act_0014 + xi_0000_0014 = 4
C_0000_linear_0015: - act_0015 + xi_0000_0015 = 0
C_0000_linear_0016: - act_0016 + xi_0000_0016 = 2
C_0000_linear_0017: - act_0017 + xi_0000_0017 = 6
C_0000_linear_0018: - act_0018 + xi_0000_0018 = 3
C_0000_linear_0019: - act_0019 + xi_0000_0019 = 2
C_0000_linear_0020: - act_0020 + xi_0000_0020 = 2
C_0000_linear_0021: - act_0021 + xi_0000_0021 = 1
C_0000_linear_0022: - act_0022 + xi_0000_0022 = 2
C_0000_linear_0023: - act_0023 + xi_0000_0023 = 0
C_0000_linear_0024: - act_0024 + xi_0000_0024 = 0
C_0000_linear_0025: - act_0025 + xi_0000_0025 = 1
C_0000_linear_0026: - act_0026 + xi_0000_0026 = 0
C_0000_linear_0027: - act_0027 + xi_0000_0027 = 0
C_0000_linear_0028: - act_0028 + xi_0000_0028 = 0
C_0000_linear_0029: - act_0029 + xi_0000_0029 = 1
C_0000_linear_0030: - act_0030 + xi_0000_0030 = 0
C_0000_linear_0031: - act_0031 + xi_0000_0031 = 0
C_0000_linear_0032: - act_0032 + xi_0000_0032 = 0
C_0000_linear_0033: - act_0033 + xi_0000_0033 = 0
C_0000_linear_0034: - act_0034 + xi_0000_0034 = 0
C_0000_linear_0035: - act_0035 + xi_0000_0035 = 0
C_0000_linear_0036: - act_0036 + xi_0000_0036 = 0
C_0000_linear_0037: - act_0037 + xi_0000_0037 = 0
C_0000_linear_0038: - act_0038 + xi_0000_0038 = 0
C_0000_linear_0039: - act_0039 + xi_0000_0039 = 0
C_0000_linear_0040: - act_0040 + xi_0000_0040 = 1
C_0000_linear_0041: - act_0041 + xi_0000_0041 = 0
C_0000_linear_0042: - act_0042 + xi_0000_0042 = 0
C_0000_linear_0043: - act_0043 + xi_0000_0043 = 1
C_0000_loss_ge: 10000 omg_0000 + 0.00131364956427 xi_0000_0000
 - 0.198713091368 xi_0000_0001 - 0.00316323095361 xi_0000_0002
 - 0.00293492711867 xi_0000_0003 + 0.0465482208533 xi_0000_0004
 + 0.0578785274697 xi_0000_0005 + 0.0331225898627 xi_0000_0006
 + 0.0194745073594 xi_0000_0007 + 0.0238465971527 xi_0000_0008
 + 1.62635852023e-05 xi_0000_0009 - 0.0140564427414 xi_0000_0010
 - 0.341956228169 xi_0000_0011 + 0.00208784804778 xi_0000_0012
 + 0.00117232093267 xi_0000_0013 + 0.0291170459929 xi_0000_0014
 + 0.0497821177716 xi_0000_0015 + 0.00184174917147 xi_0000_0016
 + 0.0291074533739 xi_0000_0017 + 0.0371336559603 xi_0000_0018
 + 0.00817839546233 xi_0000_0019 + 0.00740325709067 xi_0000_0020
 - 0.00305442542239 xi_0000_0021 + 0.0156990638456 xi_0000_0022
 - 0.00395141572845 xi_0000_0023 + 0.0255846036503 xi_0000_0024
 - 0.0216331879219 xi_0000_0025 - 0.0216979541438 xi_0000_0026
 + 0.0248966088419 xi_0000_0027 - 0.0438466788527 xi_0000_0028
 + 0.047506035643 xi_0000_0029 + 0.0196755520626 xi_0000_0030
 - 0.0265335635509 xi_0000_0031 + 0.0789161953979 xi_0000_0032
 - 0.0116832101458 xi_0000_0033 - 0.0467230600815 xi_0000_0034
 + 0.00613335720512 xi_0000_0035 - 0.0140756091755 xi_0000_0036
 + 0.00875653752671 xi_0000_0037 + 0.0219844866133 xi_0000_0038
 - 0.0196922505851 xi_0000_0039 - 0.0236164467552 xi_0000_0040
 + 0.0494513404393 xi_0000_0041 - 0.0281017734147 xi_0000_0042
 - 0.0213495670246 xi_0000_0043 >= 0.244822472561
C_0000_loss_le: 10000 omg_0000 + 0.00131364956427 xi_0000_0000
 - 0.198713091368 xi_0000_0001 - 0.00316323095361 xi_0000_0002
 - 0.00293492711867 xi_0000_0003 + 0.0465482208533 xi_0000_0004
 + 0.0578785274697 xi_0000_0005 + 0.0331225898627 xi_0000_0006
 + 0.0194745073594 xi_0000_0007 + 0.0238465971527 xi_0000_0008
 + 1.62635852023e-05 xi_0000_0009 - 0.0140564427414 xi_0000_0010
 - 0.341956228169 xi_0000_0011 + 0.00208784804778 xi_0000_0012
 + 0.00117232093267 xi_0000_0013 + 0.0291170459929 xi_0000_0014
 + 0.0497821177716 xi_0000_0015 + 0.00184174917147 xi_0000_0016
 + 0.0291074533739 xi_0000_0017 + 0.0371336559603 xi_0000_0018
 + 0.00817839546233 xi_0000_0019 + 0.00740325709067 xi_0000_0020
 - 0.00305442542239 xi_0000_0021 + 0.0156990638456 xi_0000_0022
 - 0.00395141572845 xi_0000_0023 + 0.0255846036503 xi_0000_0024
 - 0.0216331879219 xi_0000_0025 - 0.0216979541438 xi_0000_0026
 + 0.0248966088419 xi_0000_0027 - 0.0438466788527 xi_0000_0028
 + 0.047506035643 xi_0000_0029 + 0.0196755520626 xi_0000_0030
 - 0.0265335635509 xi_0000_0031 + 0.0789161953979 xi_0000_0032
 - 0.0116832101458 xi_0000_0033 - 0.0467230600815 xi_0000_0034
 + 0.00613335720512 xi_0000_0035 - 0.0140756091755 xi_0000_0036
 + 0.00875653752671 xi_0000_0037 + 0.0219844866133 xi_0000_0038
 - 0.0196922505851 xi_0000_0039 - 0.0236164467552 xi_0000_0040
 + 0.0494513404393 xi_0000_0041 - 0.0281017734147 xi_0000_0042
 - 0.0213495670246 xi_0000_0043 <= 10000.2448225
C_basic_act_0000: act_0000 = 0
C_basic_act_0001: act_0001 + pi_0001_0000 - pi_0001_0001 = 0
C_basic_act_0002: act_0002 = 0
C_basic_act_0003: act_0003 = 0
C_basic_act_0004: act_0004 + 2 pi_0004_0000 + pi_0004_0001 - pi_0004_0002 = 0
C_basic_act_0005: act_0005 = 0
C_basic_act_0006: act_0006 + 2 pi_0006_0000 + pi_0006_0001 - pi_0006_0002 = 0
C_basic_act_0007: act_0007 - pi_0007_0000 - 2 pi_0007_0001 - 3 pi_0007_0002
 - 4 pi_0007_0003 = 0
C_basic_act_0008: act_0008 - pi_0008_0000 - 2 pi_0008_0001 - 3 pi_0008_0002
 = 0
C_basic_act_0009: act_0009 + 1371 pi_0009_0000 + 984 pi_0009_0001
 + 596 pi_0009_0002 + 209 pi_0009_0003 - 180 pi_0009_0004 - 567 pi_0009_0005
 - 955 pi_0009_0006 - 1342 pi_0009_0007 - 1730 pi_0009_0008
 - 2117 pi_0009_0009 - 2505 pi_0009_0010 - 2892 pi_0009_0011
 - 3280 pi_0009_0012 - 3667 pi_0009_0013 - 4055 pi_0009_0014
 - 4442 pi_0009_0015 - 4830 pi_0009_0016 - 5218 pi_0009_0017
 - 5605 pi_0009_0018 - 5993 pi_0009_0019 - 6380 pi_0009_0020
 - 6768 pi_0009_0021 - 7155 pi_0009_0022 - 7543 pi_0009_0023
 - 7930 pi_0009_0024 - 8318 pi_0009_0025 - 8705 pi_0009_0026
 - 9093 pi_0009_0027 - 9480 pi_0009_0028 - 9868 pi_0009_0029
 - 10255 pi_0009_0030 - 10643 pi_0009_0031 - 11030 pi_0009_0032
 - 11418 pi_0009_0033 - 11806 pi_0009_0034 - 12193 pi_0009_0035
 - 12581 pi_0009_0036 - 12968 pi_0009_0037 - 13356 pi_0009_0038
 - 13743 pi_0009_0039 - 14131 pi_0009_0040 - 14518 pi_0009_0041
 - 14906 pi_0009_0042 - 15293 pi_0009_0043 - 15681 pi_0009_0044
 - 16068 pi_0009_0045 - 16456 pi_0009_0046 - 16843 pi_0009_0047
 - 17231 pi_0009_0048 - 17619 pi_0009_0049 = 0
C_basic_act_0010: act_0010 = 0
C_basic_act_0011: act_0011 + pi_0011_0000 = 0
C_basic_act_0012: act_0012 - pi_0012_0000 - 2 pi_0012_0001 - 3 pi_0012_0002
 - 4 pi_0012_0003 - 5 pi_0012_0004 - 6 pi_0012_0005 - 7 pi_0012_0006
 - 8 pi_0012_0007 - 9 pi_0012_0008 - 10 pi_0012_0009 - 11 pi_0012_0010
 - 12 pi_0012_0011 - 13 pi_0012_0012 - 14 pi_0012_0013 = 0
C_basic_act_0013: act_0013 - pi_0013_0000 = 0
C_basic_act_0014: act_0014 + 3 pi_0014_0000 + 2 pi_0014_0001 + pi_0014_0002
 = 0
C_basic_act_0015: act_0015 - pi_0015_0000 - 2 pi_0015_0001 - 3 pi_0015_0002
 = 0
C_basic_act_0016: act_0016 + 2 pi_0016_0000 + pi_0016_0001 - pi_0016_0002
 - 2 pi_0016_0003 - 3 pi_0016_0004 - 4 pi_0016_0005 - 5 pi_0016_0006
 - 6 pi_0016_0007 - 7 pi_0016_0008 - 8 pi_0016_0009 - 9 pi_0016_0010
 - 10 pi_0016_0011 - 11 pi_0016_0012 - 12 pi_0016_0013 - 13 pi_0016_0014
 - 14 pi_0016_0015 - 15 pi_0016_0016 - 16 pi_0016_0017 - 17 pi_0016_0018
 - 18 pi_0016_0019 - 19 pi_0016_0020 - 20 pi_0016_0021 - 21 pi_0016_0022
 - 22 pi_0016_0023 - 23 pi_0016_0024 - 24 pi_0016_0025 - 25 pi_0016_0026
 - 26 pi_0016_0027 - 27 pi_0016_0028 - 28 pi_0016_0029 - 29 pi_0016_0030
 - 30 pi_0016_0031 - 31 pi_0016_0032 - 32 pi_0016_0033 - 33 pi_0016_0034
 - 34 pi_0016_0035 - 35 pi_0016_0036 - 36 pi_0016_0037 - 37 pi_0016_0038
 - 38 pi_0016_0039 = 0
C_basic_act_0017: act_0017 + 6 pi_0017_0000 + 5 pi_0017_0001 + 4 pi_0017_0002
 + 3 pi_0017_0003 + 2 pi_0017_0004 + pi_0017_0005 = 0
C_basic_act_0018: act_0018 + 2 pi_0018_0000 + pi_0018_0001 - pi_0018_0002 = 0
C_basic_act_0019: act_0019 - pi_0019_0000 - 2 pi_0019_0001 - 3 pi_0019_0002
 - 4 pi_0019_0003 - 5 pi_0019_0004 - 6 pi_0019_0005 - 7 pi_0019_0006
 - 8 pi_0019_0007 - 9 pi_0019_0008 - 10 pi_0019_0009 - 11 pi_0019_0010
 - 12 pi_0019_0011 - 13 pi_0019_0012 - 14 pi_0019_0013 - 15 pi_0019_0014
 - 16 pi_0019_0015 - 17 pi_0019_0016 - 18 pi_0019_0017 - 19 pi_0019_0018
 - 20 pi_0019_0019 - 21 pi_0019_0020 - 22 pi_0019_0021 - 23 pi_0019_0022
 - 24 pi_0019_0023 - 25 pi_0019_0024 - 26 pi_0019_0025 - 27 pi_0019_0026
 - 28 pi_0019_0027 - 29 pi_0019_0028 - 30 pi_0019_0029 - 31 pi_0019_0030
 - 32 pi_0019_0031 - 33 pi_0019_0032 - 34 pi_0019_0033 - 35 pi_0019_0034
 - 36 pi_0019_0035 - 37 pi_0019_0036 - 38 pi_0019_0037 = 0
C_basic_act_0020: act_0020 - pi_0020_0000 - 2 pi_0020_0001 - 3 pi_0020_0002
 - 4 pi_0020_0003 - 5 pi_0020_0004 - 6 pi_0020_0005 - 7 pi_0020_0006
 - 8 pi_0020_0007 - 9 pi_0020_0008 - 10 pi_0020_0009 - 11 pi_0020_0010
 - 12 pi_0020_0011 - 13 pi_0020_0012 - 14 pi_0020_0013 - 15 pi_0020_0014
 - 16 pi_0020_0015 = 0
C_basic_act_0021: act_0021 - pi_0021_0000 - 2 pi_0021_0001 - 3 pi_0021_0002
 - 4 pi_0021_0003 - 5 pi_0021_0004 - 6 pi_0021_0005 - 7 pi_0021_0006
 - 8 pi_0021_0007 - 9 pi_0021_0008 - 10 pi_0021_0009 - 11 pi_0021_0010
 - 12 pi_0021_0011 - 13 pi_0021_0012 - 14 pi_0021_0013 = 0
C_basic_act_0022: act_0022 - pi_0022_0000 - 2 pi_0022_0001 - 3 pi_0022_0002
 - 4 pi_0022_0003 - 5 pi_0022_0004 - 6 pi_0022_0005 - 7 pi_0022_0006
 - 8 pi_0022_0007 - 9 pi_0022_0008 - 10 pi_0022_0009 - 11 pi_0022_0010
 - 12 pi_0022_0011 - 13 pi_0022_0012 - 14 pi_0022_0013 - 15 pi_0022_0014 = 0
C_basic_act_0023: act_0023 - pi_0023_0000 = 0
C_basic_act_0024: act_0024 - pi_0024_0000 = 0
C_basic_act_0025: act_0025 + pi_0025_0000 = 0
C_basic_act_0026: act_0026 = 0
C_basic_act_0027: act_0027 = 0
C_basic_act_0028: act_0028 = 0
C_basic_act_0029: act_0029 = 0
C_basic_act_0030: act_0030 = 0
C_basic_act_0031: act_0031 = 0
C_basic_act_0032: act_0032 - pi_0032_0000 = 0
C_basic_act_0033: act_0033 - pi_0033_0000 = 0
C_basic_act_0034: act_0034 - pi_0034_0000 = 0
C_basic_act_0035: act_0035 - pi_0035_0000 = 0
C_basic_act_0036: act_0036 - pi_0036_0000 = 0
C_basic_act_0037: act_0037 - pi_0037_0000 = 0
C_basic_act_0038: act_0038 - pi_0038_0000 = 0
C_basic_act_0039: act_0039 - pi_0039_0000 = 0
C_basic_act_0040: act_0040 + pi_0040_0000 = 0
C_basic_act_0041: act_0041 = 0
C_basic_act_0042: act_0042 = 0
C_basic_act_0043: act_0043 = 0
C_basic_category_0000: act_0023 + act_0024 + act_0025 = 0
C_basic_category_0001: act_0026 + act_0027 + act_0028 + act_0029 + act_0030
 + act_0031 = 0
C_basic_category_0002: act_0032 + act_0033 + act_0034 + act_0035 + act_0036
 + act_0037 + act_0038 + act_0039 + act_0040 = 0
C_basic_category_0003: act_0041 + act_0042 + act_0043 = 0
C_basic_pi_0000: pi_0000_0000 = 1
C_basic_pi_0001: pi_0001_0000 + pi_0001_0001 + pi_0001_0002 = 1
C_basic_pi_0002: pi_0002_0000 = 1
C_basic_pi_0003: pi_0003_0000 = 1
C_basic_pi_0004: pi_0004_0000 + pi_0004_0001 + pi_0004_0002 + pi_0004_0003 = 1
C_basic_pi_0005: pi_0005_0000 = 1
C_basic_pi_0006: pi_0006_0000 + pi_0006_0001 + pi_0006_0002 + pi_0006_0003 = 1
C_basic_pi_0007: pi_0007_0000 + pi_0007_0001 + pi_0007_0002 + pi_0007_0003
 + pi_0007_0004 = 1
C_basic_pi_0008: pi_0008_0000 + pi_0008_0001 + pi_0008_0002 + pi_0008_0003 = 1
C_basic_pi_0009: pi_0009_0000 + pi_0009_0001 + pi_0009_0002 + pi_0009_0003
 + pi_0009_0004 + pi_0009_0005 + pi_0009_0006 + pi_0009_0007 + pi_0009_0008
 + pi_0009_0009 + pi_0009_0010 + pi_0009_0011 + pi_0009_0012 + pi_0009_0013
 + pi_0009_0014 + pi_0009_0015 + pi_0009_0016 + pi_0009_0017 + pi_0009_0018
 + pi_0009_0019 + pi_0009_0020 + pi_0009_0021 + pi_0009_0022 + pi_0009_0023
 + pi_0009_0024 + pi_0009_0025 + pi_0009_0026 + pi_0009_0027 + pi_0009_0028
 + pi_0009_0029 + pi_0009_0030 + pi_0009_0031 + pi_0009_0032 + pi_0009_0033
 + pi_0009_0034 + pi_0009_0035 + pi_0009_0036 + pi_0009_0037 + pi_0009_0038
 + pi_0009_0039 + pi_0009_0040 + pi_0009_0041 + pi_0009_0042 + pi_0009_0043
 + pi_0009_0044 + pi_0009_0045 + pi_0009_0046 + pi_0009_0047 + pi_0009_0048
 + pi_0009_0049 + pi_0009_0050 = 1
C_basic_pi_0010: pi_0010_0000 = 1
C_basic_pi_0011: pi_0011_0000 + pi_0011_0001 = 1
C_basic_pi_0012: pi_0012_0000 + pi_0012_0001 + pi_0012_0002 + pi_0012_0003
 + pi_0012_0004 + pi_0012_0005 + pi_0012_0006 + pi_0012_0007 + pi_0012_0008
 + pi_0012_0009 + pi_0012_0010 + pi_0012_0011 + pi_0012_0012 + pi_0012_0013
 + pi_0012_0014 = 1
C_basic_pi_0013: pi_0013_0000 + pi_0013_0001 = 1
C_basic_pi_0014: pi_0014_0000 + pi_0014_0001 + pi_0014_0002 + pi_0014_0003 = 1
C_basic_pi_0015: pi_0015_0000 + pi_0015_0001 + pi_0015_0002 + pi_0015_0003 = 1
C_basic_pi_0016: pi_0016_0000 + pi_0016_0001 + pi_0016_0002 + pi_0016_0003
 + pi_0016_0004 + pi_0016_0005 + pi_0016_0006 + pi_0016_0007 + pi_0016_0008
 + pi_0016_0009 + pi_0016_0010 + pi_0016_0011 + pi_0016_0012 + pi_0016_0013
 + pi_0016_0014 + pi_0016_0015 + pi_0016_0016 + pi_0016_0017 + pi_0016_0018
 + pi_0016_0019 + pi_0016_0020 + pi_0016_0021 + pi_0016_0022 + pi_0016_0023
 + pi_0016_0024 + pi_0016_0025 + pi_0016_0026 + pi_0016_0027 + pi_0016_0028
 + pi_0016_0029 + pi_0016_0030 + pi_0016_0031 + pi_0016_0032 + pi_0016_0033
 + pi_0016_0034 + pi_0016_0035 + pi_0016_0036 + pi_0016_0037 + pi_0016_0038
 + pi_0016_0039 + pi_0016_0040 = 1
C_basic_pi_0017: pi_0017_0000 + pi_0017_0001 + pi_0017_0002 + pi_0017_0003
 + pi_0017_0004 + pi_0017_0005 + pi_0017_0006 = 1
C_basic_pi_0018: pi_0018_0000 + pi_0018_0001 + pi_0018_0002 + pi_0018_0003 = 1
C_basic_pi_0019: pi_0019_0000 + pi_0019_0001 + pi_0019_0002 + pi_0019_0003
 + pi_0019_0004 + pi_0019_0005 + pi_0019_0006 + pi_0019_0007 + pi_0019_0008
 + pi_0019_0009 + pi_0019_0010 + pi_0019_0011 + pi_0019_0012 + pi_0019_0013
 + pi_0019_0014 + pi_0019_0015 + pi_0019_0016 + pi_0019_0017 + pi_0019_0018
 + pi_0019_0019 + pi_0019_0020 + pi_0019_0021 + pi_0019_0022 + pi_0019_0023
 + pi_0019_0024 + pi_0019_0025 + pi_0019_0026 + pi_0019_0027 + pi_0019_0028
 + pi_0019_0029 + pi_0019_0030 + pi_0019_0031 + pi_0019_0032 + pi_0019_0033
 + pi_0019_0034 + pi_0019_0035 + pi_0019_0036 + pi_0019_0037 + pi_0019_0038
 = 1
C_basic_pi_0020: pi_0020_0000 + pi_0020_0001 + pi_0020_0002 + pi_0020_0003
 + pi_0020_0004 + pi_0020_0005 + pi_0020_0006 + pi_0020_0007 + pi_0020_0008
 + pi_0020_0009 + pi_0020_0010 + pi_0020_0011 + pi_0020_0012 + pi_0020_0013
 + pi_0020_0014 + pi_0020_0015 + pi_0020_0016 = 1
C_basic_pi_0021: pi_0021_0000 + pi_0021_0001 + pi_0021_0002 + pi_0021_0003
 + pi_0021_0004 + pi_0021_0005 + pi_0021_0006 + pi_0021_0007 + pi_0021_0008
 + pi_0021_0009 + pi_0021_0010 + pi_0021_0011 + pi_0021_0012 + pi_0021_0013
 + pi_0021_0014 = 1
C_basic_pi_0022: pi_0022_0000 + pi_0022_0001 + pi_0022_0002 + pi_0022_0003
 + pi_0022_0004 + pi_0022_0005 + pi_0022_0006 + pi_0022_0007 + pi_0022_0008
 + pi_0022_0009 + pi_0022_0010 + pi_0022_0011 + pi_0022_0012 + pi_0022_0013
 + pi_0022_0014 + pi_0022_0015 = 1
C_basic_pi_0023: pi_0023_0000 + pi_0023_0001 = 1
C_basic_pi_0024: pi_0024_0000 + pi_0024_0001 = 1
C_basic_pi_0025: pi_0025_0000 + pi_0025_0001 = 1
C_basic_pi_0026: pi_0026_0000 = 1
C_basic_pi_0027: pi_0027_0000 = 1
C_basic_pi_0028: pi_0028_0000 = 1
C_basic_pi_0029: pi_0029_0000 = 1
C_basic_pi_0030: pi_0030_0000 = 1
C_basic_pi_0031: pi_0031_0000 = 1
C_basic_pi_0032: pi_0032_0000 + pi_0032_0001 = 1
C_basic_pi_0033: pi_0033_0000 + pi_0033_0001 = 1
C_basic_pi_0034: pi_0034_0000 + pi_0034_0001 = 1
C_basic_pi_0035: pi_0035_0000 + pi_0035_0001 = 1
C_basic_pi_0036: pi_0036_0000 + pi_0036_0001 = 1
C_basic_pi_0037: pi_0037_0000 + pi_0037_0001 = 1
C_basic_pi_0038: pi_0038_0000 + pi_0038_0001 = 1
C_basic_pi_0039: pi_0039_0000 + pi_0039_0001 = 1
C_basic_pi_0040: pi_0040_0000 + pi_0040_0001 = 1
C_basic_pi_0041: pi_0041_0000 = 1
C_basic_pi_0042: pi_0042_0000 = 1
C_basic_pi_0043: pi_0043_0000 = 1
C_basic_sparsity: pi_0001_0000 + pi_0001_0001 + pi_0004_0000 + pi_0004_0001
 + pi_0004_0002 + pi_0006_0000 + pi_0006_0001 + pi_0006_0002 + pi_0007_0000
 + pi_0007_0001 + pi_0007_0002 + pi_0007_0003 + pi_0008_0000 + pi_0008_0001
 + pi_0008_0002 + pi_0009_0000 + pi_0009_0001 + pi_0009_0002 + pi_0009_0003
 + pi_0009_0004 + pi_0009_0005 + pi_0009_0006 + pi_0009_0007 + pi_0009_0008
 + pi_0009_0009 + pi_0009_0010 + pi_0009_0011 + pi_0009_0012 + pi_0009_0013
 + pi_0009_0014 + pi_0009_0015 + pi_0009_0016 + pi_0009_0017 + pi_0009_0018
 + pi_0009_0019 + pi_0009_0020 + pi_0009_0021 + pi_0009_0022 + pi_0009_0023
 + pi_0009_0024 + pi_0009_0025 + pi_0009_0026 + pi_0009_0027 + pi_0009_0028
 + pi_0009_0029 + pi_0009_0030 + pi_0009_0031 + pi_0009_0032 + pi_0009_0033
 + pi_0009_0034 + pi_0009_0035 + pi_0009_0036 + pi_0009_0037 + pi_0009_0038
 + pi_0009_0039 + pi_0009_0040 + pi_0009_0041 + pi_0009_0042 + pi_0009_0043
 + pi_0009_0044 + pi_0009_0045 + pi_0009_0046 + pi_0009_0047 + pi_0009_0048
 + pi_0009_0049 + pi_0011_0000 + pi_0012_0000 + pi_0012_0001 + pi_0012_0002
 + pi_0012_0003 + pi_0012_0004 + pi_0012_0005 + pi_0012_0006 + pi_0012_0007
 + pi_0012_0008 + pi_0012_0009 + pi_0012_0010 + pi_0012_0011 + pi_0012_0012
 + pi_0012_0013 + pi_0013_0000 + pi_0014_0000 + pi_0014_0001 + pi_0014_0002
 + pi_0015_0000 + pi_0015_0001 + pi_0015_0002 + pi_0016_0000 + pi_0016_0001
 + pi_0016_0002 + pi_0016_0003 + pi_0016_0004 + pi_0016_0005 + pi_0016_0006
 + pi_0016_0007 + pi_0016_0008 + pi_0016_0009 + pi_0016_0010 + pi_0016_0011
 + pi_0016_0012 + pi_0016_0013 + pi_0016_0014 + pi_0016_0015 + pi_0016_0016
 + pi_0016_0017 + pi_0016_0018 + pi_0016_0019 + pi_0016_0020 + pi_0016_0021
 + pi_0016_0022 + pi_0016_0023 + pi_0016_0024 + pi_0016_0025 + pi_0016_0026
 + pi_0016_0027 + pi_0016_0028 + pi_0016_0029 + pi_0016_0030 + pi_0016_0031
 + pi_0016_0032 + pi_0016_0033 + pi_0016_0034 + pi_0016_0035 + pi_0016_0036
 + pi_0016_0037 + pi_0016_0038 + pi_0016_0039 + pi_0017_0000 + pi_0017_0001
 + pi_0017_0002 + pi_0017_0003 + pi_0017_0004 + pi_0017_0005 + pi_0018_0000
 + pi_0018_0001 + pi_0018_0002 + pi_0019_0000 + pi_0019_0001 + pi_0019_0002
 + pi_0019_0003 + pi_0019_0004 + pi_0019_0005 + pi_0019_0006 + pi_0019_0007
 + pi_0019_0008 + pi_0019_0009 + pi_0019_0010 + pi_0019_0011 + pi_0019_0012
 + pi_0019_0013 + pi_0019_0014 + pi_0019_0015 + pi_0019_0016 + pi_0019_0017
 + pi_0019_0018 + pi_0019_0019 + pi_0019_0020 + pi_0019_0021 + pi_0019_0022
 + pi_0019_0023 + pi_0019_0024 + pi_0019_0025 + pi_0019_0026 + pi_0019_0027
 + pi_0019_0028 + pi_0019_0029 + pi_0019_0030 + pi_0019_0031 + pi_0019_0032
 + pi_0019_0033 + pi_0019_0034 + pi_0019_0035 + pi_0019_0036 + pi_0019_0037
 + pi_0020_0000 + pi_0020_0001 + pi_0020_0002 + pi_0020_0003 + pi_0020_0004
 + pi_0020_0005 + pi_0020_0006 + pi_0020_0007 + pi_0020_0008 + pi_0020_0009
 + pi_0020_0010 + pi_0020_0011 + pi_0020_0012 + pi_0020_0013 + pi_0020_0014
 + pi_0020_0015 + pi_0021_0000 + pi_0021_0001 + pi_0021_0002 + pi_0021_0003
 + pi_0021_0004 + pi_0021_0005 + pi_0021_0006 + pi_0021_0007 + pi_0021_0008
 + pi_0021_0009 + pi_0021_0010 + pi_0021_0011 + pi_0021_0012 + pi_0021_0013
 + pi_0022_0000 + pi_0022_0001 + pi_0022_0002 + pi_0022_0003 + pi_0022_0004
 + pi_0022_0005 + pi_0022_0006 + pi_0022_0007 + pi_0022_0008 + pi_0022_0009
 + pi_0022_0010 + pi_0022_0011 + pi_0022_0012 + pi_0022_0013 + pi_0022_0014
 + pi_0023_0000 + pi_0024_0000 + pi_0032_0000 + pi_0033_0000 + pi_0034_0000
 + pi_0035_0000 + pi_0036_0000 + pi_0037_0000 + pi_0038_0000 + pi_0039_0000
 <= 3
_C1: cost_0000 + omg_0000 >= 0
Bounds
 act_0000 = 0
 -1 <= act_0001 <= 1
 act_0002 = 0
 act_0003 = 0
 -2 <= act_0004 <= 1
 act_0005 = 0
 -2 <= act_0006 <= 1
 act_0007 <= 4
 act_0008 <= 3
 -1371 <= act_0009 <= 17619
 act_0010 = 0
 -1 <= act_0011 <= 0
 act_0012 <= 14
 act_0013 <= 1
 -3 <= act_0014 <= 0
 act_0015 <= 3
 -2 <= act_0016 <= 38
 -6 <= act_0017 <= 0
 -2 <= act_0018 <= 1
 act_0019 <= 38
 act_0020 <= 16
 act_0021 <= 14
 act_0022 <= 15
 act_0023 <= 1
 act_0024 <= 1
 -1 <= act_0025 <= 0
 act_0026 = 0
 act_0027 = 0
 act_0028 = 0
 act_0029 = 0
 act_0030 = 0
 act_0031 = 0
 act_0032 <= 1
 act_0033 <= 1
 act_0034 <= 1
 act_0035 <= 1
 act_0036 <= 1
 act_0037 <= 1
 act_0038 <= 1
 act_0039 <= 1
 -1 <= act_0040 <= 0
 act_0041 = 0
 act_0042 = 0
 act_0043 = 0
 xi_0000_0000 = 21
 xi_0000_0001 <= 2
 xi_0000_0002 = 5
 xi_0000_0003 = 1
 1 <= xi_0000_0004 <= 4
 xi_0000_0005 = 0
 1 <= xi_0000_0006 <= 4
 1 <= xi_0000_0007 <= 5
 1 <= xi_0000_0008 <= 4
 1009 <= xi_0000_0009 <= 19999
 xi_0000_0010 = 1
 xi_0000_0011 <= 1
 11 <= xi_0000_0012 <= 25
 xi_0000_0013 <= 1
 1 <= xi_0000_0014 <= 4
 xi_0000_0015 <= 3
 xi_0000_0016 <= 40
 xi_0000_0017 <= 6
 1 <= xi_0000_0018 <= 4
 2 <= xi_0000_0019 <= 40
 2 <= xi_0000_0020 <= 18
 1 <= xi_0000_0021 <= 15
 2 <= xi_0000_0022 <= 17
 xi_0000_0023 <= 1
 xi_0000_0024 <= 1
 xi_0000_0025 <= 1
 xi_0000_0026 = 0
 xi_0000_0027 = 0
 xi_0000_0028 = 0
 xi_0000_0029 = 1
 xi_0000_0030 = 0
 xi_0000_0031 = 0
 xi_0000_0032 <= 1
 xi_0000_0033 <= 1
 xi_0000_0034 <= 1
 xi_0000_0035 <= 1
 xi_0000_0036 <= 1
 xi_0000_0037 <= 1
 xi_0000_0038 <= 1
 xi_0000_0039 <= 1
 xi_0000_0040 <= 1
 xi_0000_0041 = 0
 xi_0000_0042 = 0
 xi_0000_0043 = 1
Binaries
omg_0000
pi_0000_0000
pi_0001_0000
pi_0001_0001
pi_0001_0002
pi_0002_0000
pi_0003_0000
pi_0004_0000
pi_0004_0001
pi_0004_0002
pi_0004_0003
pi_0005_0000
pi_0006_0000
pi_0006_0001
pi_0006_0002
pi_0006_0003
pi_0007_0000
pi_0007_0001
pi_0007_0002
pi_0007_0003
pi_0007_0004
pi_0008_0000
pi_0008_0001
pi_0008_0002
pi_0008_0003
pi_0009_0000
pi_0009_0001
pi_0009_0002
pi_0009_0003
pi_0009_0004
pi_0009_0005
pi_0009_0006
pi_0009_0007
pi_0009_0008
pi_0009_0009
pi_0009_0010
pi_0009_0011
pi_0009_0012
pi_0009_0013
pi_0009_0014
pi_0009_0015
pi_0009_0016
pi_0009_0017
pi_0009_0018
pi_0009_0019
pi_0009_0020
pi_0009_0021
pi_0009_0022
pi_0009_0023
pi_0009_0024
pi_0009_0025
pi_0009_0026
pi_0009_0027
pi_0009_0028
pi_0009_0029
pi_0009_0030
pi_0009_0031
pi_0009_0032
pi_0009_0033
pi_0009_0034
pi_0009_0035
pi_0009_0036
pi_0009_0037
pi_0009_0038
pi_0009_0039
pi_0009_0040
pi_0009_0041
pi_0009_0042
pi_0009_0043
pi_0009_0044
pi_0009_0045
pi_0009_0046
pi_0009_0047
pi_0009_0048
pi_0009_0049
pi_0009_0050
pi_0010_0000
pi_0011_0000
pi_0011_0001
pi_0012_0000
pi_0012_0001
pi_0012_0002
pi_0012_0003
pi_0012_0004
pi_0012_0005
pi_0012_0006
pi_0012_0007
pi_0012_0008
pi_0012_0009
pi_0012_0010
pi_0012_0011
pi_0012_0012
pi_0012_0013
pi_0012_0014
pi_0013_0000
pi_0013_0001
pi_0014_0000
pi_0014_0001
pi_0014_0002
pi_0014_0003
pi_0015_0000
pi_0015_0001
pi_0015_0002
pi_0015_0003
pi_0016_0000
pi_0016_0001
pi_0016_0002
pi_0016_0003
pi_0016_0004
pi_0016_0005
pi_0016_0006
pi_0016_0007
pi_0016_0008
pi_0016_0009
pi_0016_0010
pi_0016_0011
pi_0016_0012
pi_0016_0013
pi_0016_0014
pi_0016_0015
pi_0016_0016
pi_0016_0017
pi_0016_0018
pi_0016_0019
pi_0016_0020
pi_0016_0021
pi_0016_0022
pi_0016_0023
pi_0016_0024
pi_0016_0025
pi_0016_0026
pi_0016_0027
pi_0016_0028
pi_0016_0029
pi_0016_0030
pi_0016_0031
pi_0016_0032
pi_0016_0033
pi_0016_0034
pi_0016_0035
pi_0016_0036
pi_0016_0037
pi_0016_0038
pi_0016_0039
pi_0016_0040
pi_0017_0000
pi_0017_0001
pi_0017_0002
pi_0017_0003
pi_0017_0004
pi_0017_0005
pi_0017_0006
pi_0018_0000
pi_0018_0001
pi_0018_0002
pi_0018_0003
pi_0019_0000
pi_0019_0001
pi_0019_0002
pi_0019_0003
pi_0019_0004
pi_0019_0005
pi_0019_0006
pi_0019_0007
pi_0019_0008
pi_0019_0009
pi_0019_0010
pi_0019_0011
pi_0019_0012
pi_0019_0013
pi_0019_0014
pi_0019_0015
pi_0019_0016
pi_0019_0017
pi_0019_0018
pi_0019_0019
pi_0019_0020
pi_0019_0021
pi_0019_0022
pi_0019_0023
pi_0019_0024
pi_0019_0025
pi_0019_0026
pi_0019_0027
pi_0019_0028
pi_0019_0029
pi_0019_0030
pi_0019_0031
pi_0019_0032
pi_0019_0033
pi_0019_0034
pi_0019_0035
pi_0019_0036
pi_0019_0037
pi_0019_0038
pi_0020_0000
pi_0020_0001
pi_0020_0002
pi_0020_0003
pi_0020_0004
pi_0020_0005
pi_0020_0006
pi_0020_0007
pi_0020_0008
pi_0020_0009
pi_0020_0010
pi_0020_0011
pi_0020_0012
pi_0020_0013
pi_0020_0014
pi_0020_0015
pi_0020_0016
pi_0021_0000
pi_0021_0001
pi_0021_0002
pi_0021_0003
pi_0021_0004
pi_0021_0005
pi_0021_0006
pi_0021_0007
pi_0021_0008
pi_0021_0009
pi_0021_0010
pi_0021_0011
pi_0021_0012
pi_0021_0013
pi_0021_0014
pi_0022_0000
pi_0022_0001
pi_0022_0002
pi_0022_0003
pi_0022_0004
pi_0022_0005
pi_0022_0006
pi_0022_0007
pi_0022_0008
pi_0022_0009
pi_0022_0010
pi_0022_0011
pi_0022_0012
pi_0022_0013
pi_0022_0014
pi_0022_0015
pi_0023_0000
pi_0023_0001
pi_0024_0000
pi_0024_0001
pi_0025_0000
pi_0025_0001
pi_0026_0000
pi_0027_0000
pi_0028_0000
pi_0029_0000
pi_0030_0000
pi_0031_0000
pi_0032_0000
pi_0032_0001
pi_0033_0000
pi_0033_0001
pi_0034_0000
pi_0034_0001
pi_0035_0000
pi_0035_0001
pi_0036_0000
pi_0036_0001
pi_0037_0000
pi_0037_0001
pi_0038_0000
pi_0038_0001
pi_0039_0000
pi_0039_0001
pi_0040_0000
pi_0040_0001
pi_0041_0000
pi_0042_0000
pi_0043_0000
End
